30
1 0 3
2 0 2
2 1 1
3 0 1
3 1 1
3 2 4
4 0 3
4 1 3
4 2 3
4 3 4
5 0 5
5 1 5
5 2 5
5 3 5
5 4 4
6 0 3
6 1 1
6 2 2
6 3 3
6 4 2
6 5 4
7 0 4
7 1 2
7 2 3
7 3 3
7 4 5
7 5 5
7 6 3
8 0 4
8 1 1
8 2 1
8 3 3
8 4 3
8 5 4
8 6 2
8 7 4
9 0 1
9 1 3
9 2 2
9 3 2
9 4 5
9 5 1
9 6 1
9 7 1
9 8 3
10 0 2
10 1 1
10 2 1
10 3 5
10 4 3
10 5 4
10 6 4
10 7 1
10 8 3
10 9 3
11 0 2
11 1 2
11 2 4
11 3 5
11 4 5
11 5 4
11 6 5
11 7 2
11 8 1
11 9 1
11 10 1
12 0 2
12 1 3
12 2 1
12 3 5
12 4 3
12 5 5
12 6 2
12 7 3
12 8 3
12 9 5
12 10 2
12 11 3
13 0 4
13 1 1
13 2 4
13 3 3
13 4 5
13 5 3
13 6 3
13 7 4
13 8 1
13 9 2
13 10 1
13 11 1
13 12 3
14 0 1
14 1 2
14 2 2
14 3 1
14 4 2
14 5 5
14 6 1
14 7 4
14 8 2
14 9 2
14 10 2
14 11 2
14 12 4
14 13 2
15 0 2
15 1 5
15 2 4
15 3 4
15 4 3
15 5 4
15 6 1
15 7 4
15 8 2
15 9 1
15 10 2
15 11 3
15 12 3
15 13 5
15 14 2
16 0 5
16 1 1
16 2 4
16 3 3
16 4 3
16 5 1
16 6 1
16 7 5
16 8 3
16 9 5
16 10 5
16 11 1
16 12 5
16 13 3
16 14 5
16 15 5
17 0 3
17 1 5
17 2 2
17 3 3
17 4 2
17 5 4
17 6 2
17 7 3
17 8 1
17 9 4
17 10 2
17 11 2
17 12 3
17 13 5
17 14 4
17 15 1
17 16 4
18 0 4
18 1 5
18 2 3
18 3 3
18 4 4
18 5 4
18 6 2
18 7 3
18 8 3
18 9 3
18 10 5
18 11 2
18 12 2
18 13 2
18 14 4
18 15 3
18 16 1
18 17 1
19 0 2
19 1 3
19 2 5
19 3 4
19 4 5
19 5 4
19 6 5
19 7 2
19 8 5
19 9 5
19 10 2
19 11 4
19 12 3
19 13 5
19 14 2
19 15 3
19 16 3
19 17 5
19 18 5
20 0 1
20 1 2
20 2 4
20 3 4
20 4 3
20 5 4
20 6 3
20 7 3
20 8 5
20 9 4
20 10 4
20 11 3
20 12 4
20 13 4
20 14 1
20 15 2
20 16 5
20 17 3
20 18 3
20 19 4
21 0 3
21 1 2
21 2 5
21 3 5
21 4 4
21 5 3
21 6 4
21 7 2
21 8 5
21 9 1
21 10 3
21 11 1
21 12 4
21 13 1
21 14 2
21 15 4
21 16 4
21 17 1
21 18 3
21 19 1
21 20 3
22 0 4
22 1 2
22 2 2
22 3 5
22 4 5
22 5 4
22 6 1
22 7 3
22 8 4
22 9 3
22 10 2
22 11 4
22 12 1
22 13 2
22 14 2
22 15 3
22 16 2
22 17 1
22 18 5
22 19 5
22 20 5
22 21 1
23 0 5
23 1 4
23 2 4
23 3 1
23 4 2
23 5 1
23 6 3
23 7 4
23 8 2
23 9 4
23 10 3
23 11 1
23 12 3
23 13 4
23 14 3
23 15 3
23 16 2
23 17 4
23 18 5
23 19 1
23 20 3
23 21 3
23 22 2
24 0 2
24 1 1
24 2 1
24 3 3
24 4 3
24 5 1
24 6 3
24 7 2
24 8 5
24 9 5
24 10 3
24 11 4
24 12 2
24 13 3
24 14 1
24 15 4
24 16 5
24 17 2
24 18 1
24 19 2
24 20 3
24 21 2
24 22 4
24 23 3
25 0 2
25 1 2
25 2 2
25 3 3
25 4 1
25 5 2
25 6 1
25 7 1
25 8 3
25 9 1
25 10 3
25 11 2
25 12 4
25 13 4
25 14 4
25 15 2
25 16 3
25 17 1
25 18 1
25 19 3
25 20 3
25 21 2
25 22 1
25 23 2
25 24 1
26 0 3
26 1 3
26 2 5
26 3 4
26 4 2
26 5 1
26 6 5
26 7 4
26 8 3
26 9 2
26 10 4
26 11 5
26 12 4
26 13 3
26 14 1
26 15 2
26 16 5
26 17 1
26 18 2
26 19 3
26 20 4
26 21 4
26 22 3
26 23 3
26 24 5
26 25 2
27 0 1
27 1 1
27 2 3
27 3 1
27 4 1
27 5 1
27 6 1
27 7 3
27 8 1
27 9 3
27 10 5
27 11 4
27 12 4
27 13 3
27 14 2
27 15 5
27 16 5
27 17 2
27 18 1
27 19 1
27 20 1
27 21 3
27 22 2
27 23 1
27 24 5
27 25 5
27 26 1
28 0 5
28 1 2
28 2 4
28 3 4
28 4 3
28 5 4
28 6 1
28 7 5
28 8 4
28 9 2
28 10 4
28 11 4
28 12 2
28 13 2
28 14 1
28 15 4
28 16 5
28 17 4
28 18 5
28 19 2
28 20 4
28 21 1
28 22 1
28 23 5
28 24 2
28 25 1
28 26 4
28 27 2
29 0 5
29 1 4
29 2 1
29 3 1
29 4 4
29 5 5
29 6 5
29 7 1
29 8 5
29 9 2
29 10 1
29 11 1
29 12 5
29 13 5
29 14 1
29 15 5
29 16 1
29 17 2
29 18 3
29 19 3
29 20 2
29 21 4
29 22 2
29 23 2
29 24 4
29 25 3
29 26 3
29 27 2
29 28 1
